1 2261 10
2 2052 10
3 1959 10
5 1949 10
6 1943 10
7 1915 10
11 1904 10
13 1813 9
60 1804 9
149 1789 9
391 1786 9
533 1771 9
541 1755 9



1 2247 10
2 1907 9
6 1897 9
15 1857 10
42 1819 9
55 1811 9
64 1799 9
115 1794 10
153 1784 9
238 1782 9
479 1754 9
496 1730 9



1 2160 10
2 2065 10
3 1947 10
6 1838 9
35 1792 9
157 1720 9



1 2247 10
2 2033 10
3 1985 10
4 1862 9
6 1798 9
114 1782 9
442 1767 9
485 1716 9



1 2276 10
2 2008 10
3 1983 9
4 1944 10
6 1806 9
8 1786 9
126 1760 9
723 1707 9



